job_count = 35 ;
duration = [|19, 20, 8, 12, 11, 12, 9|14, 20, 17, 17, 10, 13, 10|9, 10, 2, 16, 4, 10, 4|2, 12, 14, 2, 10, 16, 3|13, 16, 9, 18, 17, 6, 12|15, 14, 11, 16, 2, 9, 10|12, 3, 12, 10, 8, 6, 5|11, 15, 9, 2, 17, 10, 5|9, 20, 11, 13, 5, 13, 4|5, 5, 2, 17, 6, 5, 13|3, 20, 7, 19, 14, 14, 8|23, 20, 6, 6, 16, 11, 9|10, 17, 21, 11, 12, 4, 2|15, 20, 17, 16, 13, 11, 2|20, 13, 17, 12, 10, 5, 3|20, 5, 15, 13, 11, 3, 10|18, 8, 9, 6, 2, 3, 9|2, 6, 21, 14, 4, 3, 8|21, 12, 17, 12, 16, 9, 6|23, 17, 7, 14, 12, 8, 10|20, 21, 15, 6, 13, 3, 8|6, 12, 8, 17, 12, 15, 6|5, 15, 10, 12, 7, 3, 8|22, 13, 4, 11, 3, 7, 7|7, 12, 21, 3, 9, 9, 9|6, 22, 21, 10, 7, 12, 6|21, 2, 9, 19, 5, 4, 12|12, 22, 16, 15, 5, 16, 3|8, 4, 14, 16, 2, 8, 11|8, 17, 4, 11, 13, 3, 4|11, 4, 13, 6, 16, 8, 13|4, 20, 14, 6, 12, 8, 10|4, 16, 10, 6, 8, 15, 7|21, 4, 13, 9, 3, 3, 7|16, 13, 17, 9, 9, 9, 14|] ;
machine_count = 7 ;
cost = [|18, 24, 34, 28, 27, 26, 47|23, 20, 28, 24, 41, 44, 42|16, 28, 32, 36, 23, 26, 27|29, 18, 21, 26, 37, 37, 48|16, 20, 29, 21, 30, 29, 39|22, 22, 18, 37, 37, 39, 36|26, 24, 19, 27, 39, 38, 33|24, 18, 18, 25, 40, 43, 53|29, 19, 28, 24, 29, 27, 30|17, 24, 19, 28, 34, 40, 27|17, 18, 24, 30, 24, 40, 28|21, 23, 31, 35, 36, 30, 47|16, 18, 33, 36, 29, 42, 32|30, 33, 20, 32, 23, 32, 50|20, 33, 19, 34, 41, 26, 48|23, 29, 25, 22, 27, 41, 32|18, 27, 22, 28, 35, 40, 28|31, 26, 32, 38, 34, 40, 40|24, 20, 20, 20, 35, 43, 32|23, 28, 24, 22, 25, 44, 40|18, 21, 25, 25, 42, 41, 41|20, 22, 21, 32, 37, 24, 41|16, 24, 23, 31, 39, 39, 48|20, 28, 30, 30, 24, 44, 51|18, 17, 18, 36, 29, 30, 50|26, 18, 33, 22, 23, 46, 32|17, 33, 27, 26, 33, 40, 45|28, 24, 28, 20, 38, 38, 36|24, 25, 34, 28, 35, 31, 30|18, 25, 29, 26, 26, 34, 33|27, 33, 18, 26, 30, 33, 39|20, 21, 33, 28, 30, 29, 29|23, 28, 35, 39, 34, 32, 53|16, 21, 21, 23, 34, 35, 31|16, 32, 26, 23, 25, 44, 38|] ;
deadline = [33, 33, 33, 33, 33, 33, 33, 33, 33, 33, 33, 33, 33, 33, 33, 33, 33, 33, 33, 33, 33, 33, 33, 33, 33, 33, 33, 33, 33, 33, 33, 33, 33, 33, 33] ;
release = [0, 0, 0, 0, 0, 0, 0, 0, 0, 0, 0, 0, 0, 0, 0, 0, 0, 0, 0, 0, 0, 0, 0, 0, 0, 0, 0, 0, 0, 0, 0, 0, 0, 0, 0] ;
resource = [|6, 6, 6, 6, 6, 6, 6|6, 6, 6, 6, 6, 6, 6|5, 5, 5, 5, 5, 5, 5|8, 8, 8, 8, 8, 8, 8|2, 2, 2, 2, 2, 2, 2|9, 9, 9, 9, 9, 9, 9|9, 9, 9, 9, 9, 9, 9|8, 8, 8, 8, 8, 8, 8|9, 9, 9, 9, 9, 9, 9|8, 8, 8, 8, 8, 8, 8|1, 1, 1, 1, 1, 1, 1|7, 7, 7, 7, 7, 7, 7|1, 1, 1, 1, 1, 1, 1|2, 2, 2, 2, 2, 2, 2|6, 6, 6, 6, 6, 6, 6|7, 7, 7, 7, 7, 7, 7|8, 8, 8, 8, 8, 8, 8|1, 1, 1, 1, 1, 1, 1|3, 3, 3, 3, 3, 3, 3|1, 1, 1, 1, 1, 1, 1|7, 7, 7, 7, 7, 7, 7|5, 5, 5, 5, 5, 5, 5|9, 9, 9, 9, 9, 9, 9|1, 1, 1, 1, 1, 1, 1|7, 7, 7, 7, 7, 7, 7|9, 9, 9, 9, 9, 9, 9|5, 5, 5, 5, 5, 5, 5|6, 6, 6, 6, 6, 6, 6|9, 9, 9, 9, 9, 9, 9|6, 6, 6, 6, 6, 6, 6|2, 2, 2, 2, 2, 2, 2|3, 3, 3, 3, 3, 3, 3|2, 2, 2, 2, 2, 2, 2|4, 4, 4, 4, 4, 4, 4|1, 1, 1, 1, 1, 1, 1|] ;
capacities = [10, 10, 10, 10, 10, 10, 10] ;
